* ENCODING=ISO-8859-1
NAME          CPLEX
ROWS
 N  obj1    
 G  c1      
 G  c2      
 G  c3      
 G  c4      
 G  c5      
 G  c6      
 G  c7      
 G  c8      
 G  c9      
 G  c10     
 G  c11     
 G  c12     
 G  c13     
 G  c14     
 G  c15     
 G  c16     
 G  c17     
 G  c18     
 G  c19     
 G  c20     
 G  c21     
 G  c22     
 G  c23     
 G  c24     
 G  c25     
 G  c26     
 G  c27     
 G  c28     
 G  c29     
 G  c30     
 G  c31     
 G  c32     
 G  c33     
 G  c34     
 G  c35     
 G  c36     
 G  c37     
 G  c38     
 G  c39     
 G  c40     
 G  c41     
 G  c42     
 G  c43     
 G  c44     
 G  c45     
 G  c46     
 G  c47     
 G  c48     
 G  c49     
 G  c50     
COLUMNS
    MARK0000  'MARKER'                 'INTORG'
    x1        obj1                            1
    x1        c16                           748
    x1        c17                           919
    x1        c27                           867
    x1        c34                           872
    x1        c45                           663
    x2        obj1                            1
    x2        c1                            663
    x2        c2                            808
    x2        c6                            580
    x2        c12                           449
    x2        c45                           944
    x2        c48                           406
    x3        obj1                            1
    x3        c7                            915
    x3        c15                           432
    x3        c20                           115
    x3        c23                           275
    x3        c26                           279
    x3        c43                           608
    x4        obj1                            1
    x4        c22                           416
    x4        c39                           732
    x4        c40                           865
    x4        c43                           117
    x5        obj1                            1
    x5        c18                           201
    x5        c20                           735
    x5        c26                           867
    x6        obj1                            1
    x6        c9                            998
    x6        c17                           712
    x6        c24                           766
    x6        c38                           432
    x6        c43                           121
    x6        c45                           336
    x7        obj1                            1
    x7        c39                           756
    x8        obj1                            1
    x8        c9                            311
    x8        c15                           406
    x8        c24                           195
    x8        c25                           652
    x8        c34                           824
    x9        obj1                            1
    x9        c18                           298
    x9        c35                           239
    x10       obj1                            1
    x10       c18                           900
    x10       c24                           997
    x11       obj1                            1
    x11       c1                            405
    x11       c18                           877
    x11       c31                           313
    x11       c33                           442
    x11       c39                           242
    x12       obj1                            1
    x12       c15                           954
    x12       c29                           754
    x13       obj1                            1
    x13       c32                           283
    x13       c34                           951
    x13       c41                           539
    x14       obj1                            1
    x14       c12                           165
    x14       c16                           947
    x14       c19                           896
    x14       c28                           472
    x14       c33                           324
    x14       c36                           138
    x14       c41                           593
    x14       c42                           139
    x14       c47                           965
    x15       obj1                            1
    x15       c3                            336
    x15       c13                           176
    x15       c14                           498
    x15       c31                           879
    x15       c35                           519
    x15       c36                           788
    x15       c39                           147
    x15       c44                           469
    x15       c48                           672
    x16       obj1                            1
    x16       c1                            938
    x16       c16                           404
    x16       c45                           973
    x17       obj1                            1
    x17       c12                           519
    x17       c30                           600
    x17       c36                           733
    x17       c41                           891
    x18       obj1                            1
    x18       c5                            504
    x18       c31                           311
    x18       c32                           701
    x18       c36                           305
    x18       c37                           220
    x18       c40                           407
    x18       c49                           839
    x19       obj1                            1
    x19       c3                            875
    x19       c13                           874
    x19       c23                           628
    x19       c25                           191
    x19       c26                           443
    x19       c30                           524
    x19       c39                           423
    x19       c44                           186
    x20       obj1                            1
    x20       c9                            717
    x20       c17                           134
    x20       c20                           383
    x20       c40                           827
    x20       c43                           419
    x21       obj1                            1
    x21       c1                            298
    x21       c14                           228
    x21       c19                           341
    x21       c21                           252
    x21       c23                           505
    x21       c28                           955
    x21       c36                           480
    x21       c37                           634
    x21       c43                           133
    x22       obj1                            1
    x22       c6                            278
    x22       c18                           384
    x22       c26                           891
    x23       obj1                            1
    x23       c1                            968
    x23       c4                            371
    x23       c30                           242
    x23       c49                           139
    x24       obj1                            1
    x24       c8                            987
    x24       c13                           236
    x24       c19                           200
    x24       c20                           434
    x24       c28                           671
    x24       c33                           748
    x24       c46                           287
    x25       obj1                            1
    x25       c1                            472
    x25       c3                            159
    x25       c10                           791
    x25       c26                           337
    x25       c35                           829
    x25       c44                           894
    x26       obj1                            1
    x26       c1                            942
    x26       c5                            648
    x26       c8                            804
    x26       c14                           846
    x26       c27                           569
    x26       c30                           326
    x26       c32                           510
    x27       obj1                            1
    x27       c3                            620
    x27       c21                           457
    x27       c27                           594
    x27       c33                           220
    x27       c35                           757
    x27       c37                           506
    x27       c38                           296
    x28       obj1                            1
    x28       c17                           698
    x28       c21                           313
    x28       c22                           683
    x28       c27                           629
    x29       obj1                            1
    x29       c7                            833
    x29       c20                           678
    x29       c32                           295
    x29       c41                           389
    x30       obj1                            1
    x30       c9                            884
    x30       c13                           398
    x30       c29                           381
    x30       c38                           977
    x31       obj1                            1
    x31       c4                            444
    x31       c32                           526
    x31       c33                           563
    x31       c34                           863
    x31       c35                           196
    x31       c42                           512
    x31       c46                           706
    x31       c47                           969
    x31       c49                           210
    x32       obj1                            1
    x32       c12                           686
    x32       c22                           628
    x32       c46                           775
    x33       obj1                            1
    x33       c5                            853
    x33       c11                           915
    x33       c31                           664
    x33       c35                           534
    x33       c41                           755
    x33       c44                           581
    x33       c50                           346
    x34       obj1                            1
    x34       c20                           512
    x34       c26                           470
    x34       c33                           812
    x34       c48                           214
    x34       c50                           264
    x35       obj1                            1
    x35       c2                            388
    x35       c9                            338
    x35       c11                           357
    x35       c25                           473
    x35       c39                           534
    x35       c43                           936
    x35       c50                           159
    x36       obj1                            1
    x36       c4                            209
    x36       c7                            305
    x36       c19                           124
    x36       c21                           998
    x36       c24                           315
    x36       c38                           140
    x36       c47                           854
    x36       c50                           442
    x37       obj1                            1
    x37       c3                            160
    x37       c10                           838
    x37       c11                           178
    x37       c29                           879
    x37       c30                           704
    x37       c40                           115
    x38       obj1                            1
    x38       c3                            987
    x38       c6                            986
    x38       c7                            601
    x38       c25                           458
    x38       c30                           319
    x38       c33                           308
    x39       obj1                            1
    x39       c29                           464
    x39       c34                           102
    x39       c38                           387
    x40       obj1                            1
    x40       c27                           207
    x40       c32                           659
    x41       obj1                            1
    x41       c2                            217
    x41       c11                           922
    x41       c21                           730
    x41       c22                           931
    x41       c34                           222
    x41       c45                           393
    x42       obj1                            1
    x42       c7                            863
    x42       c8                            599
    x42       c37                           155
    x42       c40                           108
    x43       obj1                            1
    x43       c20                           666
    x43       c22                           773
    x43       c26                           935
    x44       obj1                            1
    x44       c2                            875
    x44       c29                           866
    x44       c38                           557
    x44       c42                           583
    x45       obj1                            1
    x45       c27                           160
    x46       obj1                            1
    x46       c2                            381
    x46       c45                           933
    x47       obj1                            1
    x47       c5                            697
    x47       c8                            951
    x47       c17                           320
    x47       c30                           183
    x47       c36                           388
    x47       c46                           335
    x48       obj1                            1
    x48       c8                            341
    x48       c10                           369
    x48       c12                           793
    x48       c16                           973
    x49       obj1                            1
    x49       c36                           500
    x49       c43                           278
    x50       obj1                            1
    x50       c6                            292
    x50       c9                            711
    x50       c10                           555
    x50       c18                           370
    x50       c32                           768
    x50       c40                           917
    x50       c44                           563
    MARK0001  'MARKER'                 'INTEND'
RHS
    rhs       c1                           2343
    rhs       c2                           1335
    rhs       c3                           1569
    rhs       c4                            512
    rhs       c5                           1351
    rhs       c6                           1068
    rhs       c7                           1759
    rhs       c8                           1841
    rhs       c9                           1980
    rhs       c10                          1277
    rhs       c11                          1186
    rhs       c12                          1306
    rhs       c13                           842
    rhs       c14                           786
    rhs       c15                           896
    rhs       c16                          1536
    rhs       c17                          1392
    rhs       c18                          1515
    rhs       c19                           781
    rhs       c20                          1762
    rhs       c21                          1375
    rhs       c22                          1716
    rhs       c23                           704
    rhs       c24                          1137
    rhs       c25                           887
    rhs       c26                          2111
    rhs       c27                          1513
    rhs       c28                          1049
    rhs       c29                          1672
    rhs       c30                          1449
    rhs       c31                          1084
    rhs       c32                          1871
    rhs       c33                          1709
    rhs       c34                          1917
    rhs       c35                          1537
    rhs       c36                          1666
    rhs       c37                           758
    rhs       c38                          1395
    rhs       c39                          1417
    rhs       c40                          1620
    rhs       c41                          1584
    rhs       c42                           617
    rhs       c43                          1306
    rhs       c44                          1347
    rhs       c45                          2121
    rhs       c46                          1052
    rhs       c47                          1394
    rhs       c48                           646
    rhs       c49                           594
    rhs       c50                           606
BOUNDS
 LI bnd       x1        0
 LI bnd       x2        0
 LI bnd       x3        0
 LI bnd       x4        0
 LI bnd       x5        0
 LI bnd       x6        0
 LI bnd       x7        0
 LI bnd       x8        0
 LI bnd       x9        0
 LI bnd       x10       0
 LI bnd       x11       0
 LI bnd       x12       0
 LI bnd       x13       0
 LI bnd       x14       0
 LI bnd       x15       0
 LI bnd       x16       0
 LI bnd       x17       0
 LI bnd       x18       0
 LI bnd       x19       0
 LI bnd       x20       0
 LI bnd       x21       0
 LI bnd       x22       0
 LI bnd       x23       0
 LI bnd       x24       0
 LI bnd       x25       0
 LI bnd       x26       0
 LI bnd       x27       0
 LI bnd       x28       0
 LI bnd       x29       0
 LI bnd       x30       0
 LI bnd       x31       0
 LI bnd       x32       0
 LI bnd       x33       0
 LI bnd       x34       0
 LI bnd       x35       0
 LI bnd       x36       0
 LI bnd       x37       0
 LI bnd       x38       0
 LI bnd       x39       0
 LI bnd       x40       0
 LI bnd       x41       0
 LI bnd       x42       0
 LI bnd       x43       0
 LI bnd       x44       0
 LI bnd       x45       0
 LI bnd       x46       0
 LI bnd       x47       0
 LI bnd       x48       0
 LI bnd       x49       0
 LI bnd       x50       0
ENDATA
